
Welcome to IBM(R) ILOG(R) CPLEX(R) Interactive Optimizer 22.1.1.0
  with Simplex, Mixed Integer & Barrier Optimizers
5725-A06 5725-A29 5724-Y48 5724-Y49 5724-Y54 5724-Y55 5655-Y21
Copyright IBM Corp. 1988, 2022.  All Rights Reserved.

Type 'help' for a list of available commands.
Type 'help' followed by a command name for more
information on commands.

CPLEX> Selected objective sense:  MINIMIZE
Selected objective  name:  00000000
Selected RHS        name:  RHS1
Selected bound      name:  BOUND
Problem 'ee.mps' read.
Read time = 0.02 sec. (3.17 ticks)
CPLEX> New value for time limit in seconds: 7200
CPLEX> New value for parallel optimization mode: -1
CPLEX> New value for default parallel thread count: 40
CPLEX> New value for mixed integer optimality gap tolerance: 1e-13
CPLEX> Version identifier: 22.1.1.0 | 2022-11-28 | 9160aff4d
CPXPARAM_Threads                                 40
CPXPARAM_Parallel                                -1
CPXPARAM_TimeLimit                               7200
CPXPARAM_MIP_Tolerances_MIPGap                   1e-13
Found incumbent of value 0.000000 after 0.00 sec. (0.31 ticks)
Tried aggregator 2 times.
MIP Presolve eliminated 183 rows and 2745 columns.
MIP Presolve modified 6090 coefficients.
Aggregator did 713 substitutions.
Reduced MIP has 3636 rows, 7840 columns, and 28954 nonzeros.
Reduced MIP has 7840 binaries, 0 generals, 0 SOSs, and 0 indicators.
Presolve time = 0.07 sec. (69.13 ticks)
Probing time = 0.03 sec. (5.33 ticks)
Tried aggregator 1 time.
Detecting symmetries...
Reduced MIP has 3636 rows, 7840 columns, and 28954 nonzeros.
Reduced MIP has 7840 binaries, 0 generals, 0 SOSs, and 0 indicators.
Presolve time = 0.02 sec. (22.11 ticks)
Probing time = 0.02 sec. (5.12 ticks)
Clique table members: 18788.
MIP emphasis: balance optimality and feasibility.
MIP search method: dynamic search.
Parallel mode: opportunistic, using up to 40 threads.
Root relaxation solution time = 0.11 sec. (88.77 ticks)

        Nodes                                         Cuts/
   Node  Left     Objective  IInf  Best Integer    Best Bound    ItCnt     Gap

*     0+    0                            0.0000  -1.54000e+13              --- 
*     0+    0                      -6.00000e+12  -1.54000e+13           156.67%
*     0+    0                      -8.40000e+12  -1.54000e+13            83.33%
      0     0  -1.53900e+13    84  -8.40000e+12  -1.53900e+13     2116   83.21%
*     0+    0                      -1.53900e+13  -1.53900e+13             0.00%
      0     0  -1.53900e+13   168  -1.53900e+13      Cuts: 88     2445    0.00%
      0     0  -1.53900e+13   216  -1.53900e+13      Cuts: 88     2885    0.00%
*     0+    0                      -1.53900e+13  -1.53900e+13             0.00%
*     0+    0                      -1.53900e+13  -1.53900e+13             0.00%

Repeating presolve.
Tried aggregator 3 times.
MIP Presolve eliminated 1451 rows and 4052 columns.
MIP Presolve added 86 rows and 0 columns.
MIP Presolve modified 226 coefficients.
Aggregator did 533 substitutions.
Reduced MIP has 1738 rows, 3194 columns, and 11594 nonzeros.
Reduced MIP has 3194 binaries, 0 generals, 0 SOSs, and 0 indicators.
Presolve time = 0.05 sec. (53.19 ticks)
Probing fixed 51 vars, tightened 0 bounds.
Probing time = 0.05 sec. (12.40 ticks)
Tried aggregator 3 times.
MIP Presolve eliminated 46 rows and 76 columns.
MIP Presolve added 8 rows and 0 columns.
MIP Presolve modified 33 coefficients.
Aggregator did 17 substitutions.
Reduced MIP has 1683 rows, 3097 columns, and 11216 nonzeros.
Reduced MIP has 3097 binaries, 0 generals, 0 SOSs, and 0 indicators.
Presolve time = 0.02 sec. (22.87 ticks)
Probing time = 0.03 sec. (7.24 ticks)
Tried aggregator 1 time.
Detecting symmetries...
MIP Presolve eliminated 2 rows and 2 columns.
Reduced MIP has 1681 rows, 3095 columns, and 11210 nonzeros.
Reduced MIP has 3095 binaries, 0 generals, 0 SOSs, and 0 indicators.
Presolve time = 0.02 sec. (12.12 ticks)
Represolve time = 0.21 sec. (132.43 ticks)
Probing time = 0.02 sec. (3.88 ticks)
Clique table members: 7209.
MIP emphasis: balance optimality and feasibility.
MIP search method: dynamic search.
Parallel mode: opportunistic, using up to 40 threads.
Root relaxation solution time = 0.05 sec. (43.69 ticks)

        Nodes                                         Cuts/
   Node  Left     Objective  IInf  Best Integer    Best Bound    ItCnt     Gap

*     0+    0                      -1.53900e+13  -1.53900e+13             0.00%
      0     0  -1.53900e+13   176  -1.53900e+13  -1.53900e+13     4484    0.00%
*     0+    0                      -1.53900e+13  -1.53900e+13             0.00%
      0     0  -1.53900e+13   201  -1.53900e+13     Cuts: 123     4800    0.00%
      0     0  -1.53900e+13   200  -1.53900e+13      Cuts: 63     4961    0.00%
*     0+    0                      -1.53900e+13  -1.53900e+13             0.00%
      0     2  -1.53900e+13   195  -1.53900e+13  -1.53900e+13     4961    0.00%
Elapsed time = 2.44 sec. (1750.18 ticks, tree = 0.02 MB, solutions = 8)
*  2040    26      integral     0  -1.53900e+13  -1.53900e+13    87192    0.00%
   2243    95  -1.53900e+13    48  -1.53900e+13  -1.53900e+13    32683    0.00%
   4613    26        cutoff        -1.53900e+13  -1.53900e+13    95173    0.00%

GUB cover cuts applied:  1
Clique cuts applied:  27
Cover cuts applied:  325
Mixed integer rounding cuts applied:  10
Zero-half cuts applied:  12
Lift and project cuts applied:  14
Gomory fractional cuts applied:  30

Root node processing (before b&c):
  Real time             =    2.09 sec. (1750.42 ticks)
Parallel b&c, 40 threads:
  Real time             =    1.64 sec. (599.22 ticks)
  Sync time (average)   =    0.70 sec.
  Wait time (average)   =    0.00 sec.
                          ------------
Total (root+branch&cut) =    3.73 sec. (2349.64 ticks)

Solution pool: 18 solutions saved.

MIP - Integer optimal solution:  Objective = -1.5389999089e+13
Solution time =    3.82 sec.  Iterations = 116420  Nodes = 4901
Deterministic time = 2349.67 ticks  (615.53 ticks/sec)

CPLEX> Solution 'p19' written to file 'ee.sol'.
CPLEX> 